(declare-const v0 Bool)
(declare-const v1 Bool)
(declare-const v2 Bool)
(declare-const v3 Bool)
(declare-const v4 Bool)
(assert (edge (not v0) (or v0 v1 (not v2))))
(assert (edge v3 true))
(assert (edge (or v0 v2) (or (not v1) (not v3))))
(assert (edge (or v4 (not v2)) v0))
(assert (edge v2 true))
(assert (not (edge true (or v1 (not v3) (not v0)))))